p cnf 966 696
c p distribution  0.875 0.125
c p distribution  0.875 0.125
c p distribution  0.875 0.125
c p distribution  0.875 0.125
c p distribution  0.875 0.125
c p distribution  0.875 0.125
c p distribution  0.875 0.125
c p distribution  0.875 0.125
c p distribution  0.875 0.125
c p distribution  0.875 0.125
c p distribution  0.875 0.125
c p distribution  0.875 0.125
c p distribution  0.875 0.125
c p distribution  0.875 0.125
c p distribution  0.875 0.125
c p distribution  0.875 0.125
c p distribution  0.875 0.125
c p distribution  0.875 0.125
c p distribution  0.875 0.125
c p distribution  0.875 0.125
c p distribution  0.875 0.125
c p distribution  0.875 0.125
c p distribution  0.875 0.125
c p distribution  0.875 0.125
c p distribution  0.875 0.125
c p distribution  0.875 0.125
c p distribution  0.875 0.125
c p distribution  0.875 0.125
c p distribution  0.875 0.125
c p distribution  0.875 0.125
c p distribution  0.875 0.125
c p distribution  0.875 0.125
c p distribution  0.875 0.125
c p distribution  0.875 0.125
c p distribution  0.875 0.125
c p distribution  0.875 0.125
c p distribution  0.875 0.125
c p distribution  0.875 0.125
c p distribution  0.875 0.125
c p distribution  0.875 0.125
c p distribution  0.875 0.125
c p distribution  0.875 0.125
c p distribution  0.875 0.125
c p distribution  0.875 0.125
c p distribution  0.875 0.125
c p distribution  0.875 0.125
c p distribution  0.875 0.125
c p distribution  0.875 0.125
c p distribution  0.875 0.125
c p distribution  0.875 0.125
c p distribution  0.875 0.125
c p distribution  0.875 0.125
c p distribution  0.875 0.125
c p distribution  0.875 0.125
c p distribution  0.875 0.125
c p distribution  0.875 0.125
c p distribution  0.875 0.125
c p distribution  0.875 0.125
c p distribution  0.875 0.125
c p distribution  0.875 0.125
c p distribution  0.875 0.125
c p distribution  0.875 0.125
c p distribution  0.875 0.125
c p distribution  0.875 0.125
c p distribution  0.875 0.125
c p distribution  0.875 0.125
c p distribution  0.875 0.125
c p distribution  0.875 0.125
c p distribution  0.875 0.125
c p distribution  0.875 0.125
c p distribution  0.875 0.125
c p distribution  0.875 0.125
c p distribution  0.875 0.125
c p distribution  0.875 0.125
c p distribution  0.875 0.125
c p distribution  0.875 0.125
c p distribution  0.875 0.125
c p distribution  0.875 0.125
c p distribution  0.875 0.125
c p distribution  0.875 0.125
c p distribution  0.875 0.125
c p distribution  0.875 0.125
c p distribution  0.875 0.125
c p distribution  0.875 0.125
c p distribution  0.875 0.125
c p distribution  0.875 0.125
c p distribution  0.875 0.125
c p distribution  0.875 0.125
c p distribution  0.875 0.125
c p distribution  0.875 0.125
c p distribution  0.875 0.125
c p distribution  0.875 0.125
c p distribution  0.875 0.125
c p distribution  0.875 0.125
c p distribution  0.875 0.125
c p distribution  0.875 0.125
c p distribution  0.875 0.125
c p distribution  0.875 0.125
c p distribution  0.875 0.125
c p distribution  0.875 0.125
c p distribution  0.875 0.125
c p distribution  0.875 0.125
c p distribution  0.875 0.125
c p distribution  0.875 0.125
c p distribution  0.875 0.125
c p distribution  0.875 0.125
c p distribution  0.875 0.125
c p distribution  0.875 0.125
c p distribution  0.875 0.125
c p distribution  0.875 0.125
c p distribution  0.875 0.125
c p distribution  0.875 0.125
c p distribution  0.875 0.125
c p distribution  0.875 0.125
c p distribution  0.875 0.125
c p distribution  0.875 0.125
c p distribution  0.875 0.125
c p distribution  0.875 0.125
c p distribution  0.875 0.125
c p distribution  0.875 0.125
c p distribution  0.875 0.125
c p distribution  0.875 0.125
c p distribution  0.875 0.125
c p distribution  0.875 0.125
c p distribution  0.875 0.125
c p distribution  0.875 0.125
c p distribution  0.875 0.125
c p distribution  0.875 0.125
c p distribution  0.875 0.125
c p distribution  0.875 0.125
c p distribution  0.875 0.125
c p distribution  0.875 0.125
c p distribution  0.875 0.125
c p distribution  0.875 0.125
c p distribution  0.875 0.125
c p distribution  0.875 0.125
c p distribution  0.875 0.125
c p distribution  0.875 0.125
c p distribution  0.875 0.125
c p distribution  0.875 0.125
c p distribution  0.875 0.125
c p distribution  0.875 0.125
c p distribution  0.875 0.125
c p distribution  0.875 0.125
c p distribution  0.875 0.125
c p distribution  0.875 0.125
c p distribution  0.875 0.125
c p distribution  0.875 0.125
c p distribution  0.875 0.125
c p distribution  0.875 0.125
c p distribution  0.875 0.125
c p distribution  0.875 0.125
c p distribution  0.875 0.125
c p distribution  0.875 0.125
c p distribution  0.875 0.125
c p distribution  0.875 0.125
c p distribution  0.875 0.125
c p distribution  0.875 0.125
c p distribution  0.875 0.125
c p distribution  0.875 0.125
c p distribution  0.875 0.125
c p distribution  0.875 0.125
c p distribution  0.875 0.125
c p distribution  0.875 0.125
c p distribution  0.875 0.125
c p distribution  0.875 0.125
c p distribution  0.875 0.125
c p distribution  0.875 0.125
c p distribution  0.875 0.125
c p distribution  0.875 0.125
c p distribution  0.875 0.125
c p distribution  0.875 0.125
c p distribution  0.875 0.125
c p distribution  0.875 0.125
c p distribution  0.875 0.125
c p distribution  0.875 0.125
c p distribution  0.875 0.125
c p distribution  0.875 0.125
c p distribution  0.875 0.125
c p distribution  0.875 0.125
c p distribution  0.875 0.125
c p distribution  0.875 0.125
c p distribution  0.875 0.125
c p distribution  0.875 0.125
c p distribution  0.875 0.125
c p distribution  0.875 0.125
c p distribution  0.875 0.125
c p distribution  0.875 0.125
c p distribution  0.875 0.125
c p distribution  0.875 0.125
c p distribution  0.875 0.125
c p distribution  0.875 0.125
c p distribution  0.875 0.125
c p distribution  0.875 0.125
c p distribution  0.875 0.125
c p distribution  0.875 0.125
c p distribution  0.875 0.125
c p distribution  0.875 0.125
c p distribution  0.875 0.125
c p distribution  0.875 0.125
c p distribution  0.875 0.125
c p distribution  0.875 0.125
c p distribution  0.875 0.125
c p distribution  0.875 0.125
c p distribution  0.875 0.125
c p distribution  0.875 0.125
c p distribution  0.875 0.125
c p distribution  0.875 0.125
c p distribution  0.875 0.125
c p distribution  0.875 0.125
c p distribution  0.875 0.125
c p distribution  0.875 0.125
c p distribution  0.875 0.125
c p distribution  0.875 0.125
c p distribution  0.875 0.125
c p distribution  0.875 0.125
c p distribution  0.875 0.125
c p distribution  0.875 0.125
c p distribution  0.875 0.125
c p distribution  0.875 0.125
c p distribution  0.875 0.125
c p distribution  0.875 0.125
c p distribution  0.875 0.125
c p distribution  0.875 0.125
c p distribution  0.875 0.125
c p distribution  0.875 0.125
c p distribution  0.875 0.125
c p distribution  0.875 0.125
c p distribution  0.875 0.125
c p distribution  0.875 0.125
c p distribution  0.875 0.125
c p distribution  0.875 0.125
c p distribution  0.875 0.125
c p distribution  0.875 0.125
c p distribution  0.875 0.125
c p distribution  0.875 0.125
c p distribution  0.875 0.125
c p distribution  0.875 0.125
c p distribution  0.875 0.125
c p distribution  0.875 0.125
c p distribution  0.875 0.125
c p distribution  0.875 0.125
c p distribution  0.875 0.125
c p distribution  0.875 0.125
c p distribution  0.875 0.125
c p distribution  0.875 0.125
c p distribution  0.875 0.125
c p distribution  0.875 0.125
c p distribution  0.875 0.125
c p distribution  0.875 0.125
c p distribution  0.875 0.125
c p distribution  0.875 0.125
c p distribution  0.875 0.125
c p distribution  0.875 0.125
c p distribution  0.875 0.125
c p distribution  0.875 0.125
c p distribution  0.875 0.125
c p distribution  0.875 0.125
c p distribution  0.875 0.125
c p distribution  0.875 0.125
c p distribution  0.875 0.125
c p distribution  0.875 0.125
c p distribution  0.875 0.125
c p distribution  0.875 0.125
c p distribution  0.875 0.125
c p distribution  0.875 0.125
c p distribution  0.875 0.125
c p distribution  0.875 0.125
c p distribution  0.875 0.125
c p distribution  0.875 0.125
c p distribution  0.875 0.125
c p distribution  0.875 0.125
c p distribution  0.875 0.125
c p distribution  0.875 0.125
c p distribution  0.875 0.125
c p distribution  0.875 0.125
c p distribution  0.875 0.125
c p distribution  0.875 0.125
c p distribution  0.875 0.125
c p distribution  0.875 0.125
c p distribution  0.875 0.125
c p distribution  0.875 0.125
c p distribution  0.875 0.125
c p distribution  0.875 0.125
c p distribution  0.875 0.125
c p distribution  0.875 0.125
c p distribution  0.875 0.125
c p distribution  0.875 0.125
c p distribution  0.875 0.125
c p distribution  0.875 0.125
c p distribution  0.875 0.125
c p distribution  0.875 0.125
c p distribution  0.875 0.125
c p distribution  0.875 0.125
c p distribution  0.875 0.125
c p distribution  0.875 0.125
c p distribution  0.875 0.125
c p distribution  0.875 0.125
c p distribution  0.875 0.125
c p distribution  0.875 0.125
c p distribution  0.875 0.125
c p distribution  0.875 0.125
c p distribution  0.875 0.125
c p distribution  0.875 0.125
c p distribution  0.875 0.125
c p distribution  0.875 0.125
c p distribution  0.875 0.125
c p distribution  0.875 0.125
c p distribution  0.875 0.125
c p distribution  0.875 0.125
c p distribution  0.875 0.125
c p distribution  0.875 0.125
c p distribution  0.875 0.125
c p distribution  0.875 0.125
c p distribution  0.875 0.125
c p distribution  0.875 0.125
c p distribution  0.875 0.125
c p distribution  0.875 0.125
c p distribution  0.875 0.125
c p distribution  0.875 0.125
c p distribution  0.875 0.125
c p distribution  0.875 0.125
c p distribution  0.875 0.125
c p distribution  0.875 0.125
c p distribution  0.875 0.125
c p distribution  0.875 0.125
c p distribution  0.875 0.125
c p distribution  0.875 0.125
c p distribution  0.875 0.125
c p distribution  0.875 0.125
c p distribution  0.875 0.125
c p distribution  0.875 0.125
c p distribution  0.875 0.125
c p distribution  0.875 0.125
c p distribution  0.875 0.125
c p distribution  0.875 0.125
c p distribution  0.875 0.125
c p distribution  0.875 0.125
c p distribution  0.875 0.125
c p distribution  0.875 0.125
c p distribution  0.875 0.125
c p distribution  0.875 0.125
c p distribution  0.875 0.125
c p distribution  0.875 0.125
c p distribution  0.875 0.125
c p distribution  0.875 0.125
c p distribution  0.875 0.125
768 0
-709 0
846 -818 -1 0
818 -846 -1 0
891 -962 -3 0
962 -891 -3 0
833 -788 -5 0
788 -833 -5 0
825 -832 -7 0
832 -825 -7 0
913 -829 -9 0
829 -913 -9 0
804 -965 -11 0
965 -804 -11 0
894 -913 -13 0
913 -894 -13 0
954 -876 -15 0
876 -954 -15 0
816 -852 -17 0
852 -816 -17 0
698 -891 -19 0
891 -698 -19 0
915 -700 -21 0
700 -915 -21 0
724 -719 -23 0
719 -724 -23 0
954 -770 -25 0
770 -954 -25 0
809 -945 -27 0
945 -809 -27 0
833 -916 -29 0
916 -833 -29 0
710 -789 -31 0
789 -710 -31 0
843 -956 -33 0
956 -843 -33 0
738 -705 -35 0
705 -738 -35 0
836 -843 -37 0
843 -836 -37 0
739 -915 -39 0
915 -739 -39 0
828 -730 -41 0
730 -828 -41 0
727 -916 -43 0
916 -727 -43 0
798 -755 -45 0
755 -798 -45 0
920 -842 -47 0
842 -920 -47 0
785 -871 -49 0
871 -785 -49 0
935 -788 -51 0
788 -935 -51 0
794 -740 -53 0
740 -794 -53 0
753 -953 -55 0
953 -753 -55 0
911 -885 -57 0
885 -911 -57 0
840 -892 -59 0
892 -840 -59 0
712 -887 -61 0
887 -712 -61 0
841 -707 -63 0
707 -841 -63 0
910 -799 -65 0
799 -910 -65 0
801 -940 -67 0
940 -801 -67 0
918 -814 -69 0
814 -918 -69 0
830 -849 -71 0
849 -830 -71 0
859 -803 -73 0
803 -859 -73 0
916 -833 -75 0
833 -916 -75 0
799 -873 -77 0
873 -799 -77 0
779 -774 -79 0
774 -779 -79 0
756 -866 -81 0
866 -756 -81 0
835 -797 -83 0
797 -835 -83 0
911 -716 -85 0
716 -911 -85 0
747 -887 -87 0
887 -747 -87 0
966 -917 -89 0
917 -966 -89 0
800 -847 -91 0
847 -800 -91 0
765 -909 -93 0
909 -765 -93 0
923 -741 -95 0
741 -923 -95 0
838 -847 -97 0
847 -838 -97 0
794 -962 -99 0
962 -794 -99 0
898 -730 -101 0
730 -898 -101 0
709 -735 -103 0
735 -709 -103 0
733 -764 -105 0
764 -733 -105 0
773 -782 -107 0
782 -773 -107 0
726 -832 -109 0
832 -726 -109 0
808 -850 -111 0
850 -808 -111 0
696 -778 -113 0
778 -696 -113 0
901 -938 -115 0
938 -901 -115 0
903 -770 -117 0
770 -903 -117 0
772 -962 -119 0
962 -772 -119 0
782 -919 -121 0
919 -782 -121 0
927 -781 -123 0
781 -927 -123 0
953 -890 -125 0
890 -953 -125 0
734 -866 -127 0
866 -734 -127 0
844 -964 -129 0
964 -844 -129 0
742 -853 -131 0
853 -742 -131 0
818 -831 -133 0
831 -818 -133 0
760 -835 -135 0
835 -760 -135 0
814 -928 -137 0
928 -814 -137 0
836 -759 -139 0
759 -836 -139 0
755 -736 -141 0
736 -755 -141 0
841 -926 -143 0
926 -841 -143 0
776 -847 -145 0
847 -776 -145 0
813 -941 -147 0
941 -813 -147 0
860 -888 -149 0
888 -860 -149 0
815 -715 -151 0
715 -815 -151 0
779 -902 -153 0
902 -779 -153 0
861 -730 -155 0
730 -861 -155 0
744 -887 -157 0
887 -744 -157 0
770 -726 -159 0
726 -770 -159 0
836 -759 -161 0
759 -836 -161 0
740 -756 -163 0
756 -740 -163 0
714 -917 -165 0
917 -714 -165 0
837 -805 -167 0
805 -837 -167 0
807 -956 -169 0
956 -807 -169 0
774 -892 -171 0
892 -774 -171 0
903 -875 -173 0
875 -903 -173 0
795 -702 -175 0
702 -795 -175 0
935 -883 -177 0
883 -935 -177 0
804 -751 -179 0
751 -804 -179 0
856 -905 -181 0
905 -856 -181 0
789 -710 -183 0
710 -789 -183 0
937 -786 -185 0
786 -937 -185 0
899 -808 -187 0
808 -899 -187 0
758 -795 -189 0
795 -758 -189 0
756 -826 -191 0
826 -756 -191 0
752 -926 -193 0
926 -752 -193 0
879 -809 -195 0
809 -879 -195 0
769 -961 -197 0
961 -769 -197 0
927 -787 -199 0
787 -927 -199 0
879 -858 -201 0
858 -879 -201 0
855 -719 -203 0
719 -855 -203 0
916 -727 -205 0
727 -916 -205 0
723 -957 -207 0
957 -723 -207 0
701 -749 -209 0
749 -701 -209 0
708 -882 -211 0
882 -708 -211 0
965 -881 -213 0
881 -965 -213 0
831 -825 -215 0
825 -831 -215 0
945 -787 -217 0
787 -945 -217 0
906 -882 -219 0
882 -906 -219 0
807 -843 -221 0
843 -807 -221 0
952 -925 -223 0
925 -952 -223 0
840 -950 -225 0
950 -840 -225 0
915 -700 -227 0
700 -915 -227 0
781 -899 -229 0
899 -781 -229 0
932 -808 -231 0
808 -932 -231 0
793 -766 -233 0
766 -793 -233 0
717 -706 -235 0
706 -717 -235 0
956 -878 -237 0
878 -956 -237 0
772 -962 -239 0
962 -772 -239 0
944 -829 -241 0
829 -944 -241 0
861 -746 -243 0
746 -861 -243 0
868 -904 -245 0
904 -868 -245 0
851 -801 -247 0
801 -851 -247 0
738 -860 -249 0
860 -738 -249 0
891 -872 -251 0
872 -891 -251 0
727 -883 -253 0
883 -727 -253 0
867 -955 -255 0
955 -867 -255 0
811 -803 -257 0
803 -811 -257 0
944 -829 -259 0
829 -944 -259 0
773 -785 -261 0
785 -773 -261 0
910 -839 -263 0
839 -910 -263 0
756 -826 -265 0
826 -756 -265 0
771 -867 -267 0
867 -771 -267 0
698 -930 -269 0
930 -698 -269 0
891 -796 -271 0
796 -891 -271 0
820 -725 -273 0
725 -820 -273 0
924 -739 -275 0
739 -924 -275 0
903 -853 -277 0
853 -903 -277 0
718 -895 -279 0
895 -718 -279 0
852 -960 -281 0
960 -852 -281 0
872 -775 -283 0
775 -872 -283 0
869 -827 -285 0
827 -869 -285 0
846 -818 -287 0
818 -846 -287 0
772 -891 -289 0
891 -772 -289 0
788 -883 -291 0
883 -788 -291 0
913 -763 -293 0
763 -913 -293 0
915 -749 -295 0
749 -915 -295 0
734 -756 -297 0
756 -734 -297 0
757 -746 -299 0
746 -757 -299 0
942 -811 -301 0
811 -942 -301 0
901 -909 -303 0
909 -901 -303 0
914 -849 -305 0
849 -914 -305 0
776 -963 -307 0
963 -776 -307 0
846 -728 -309 0
728 -846 -309 0
870 -736 -311 0
736 -870 -311 0
965 -955 -313 0
955 -965 -313 0
740 -756 -315 0
756 -740 -315 0
772 -962 -317 0
962 -772 -317 0
862 -787 -319 0
787 -862 -319 0
791 -853 -321 0
853 -791 -321 0
886 -834 -323 0
834 -886 -323 0
779 -745 -325 0
745 -779 -325 0
826 -720 -327 0
720 -826 -327 0
768 -773 -329 0
773 -768 -329 0
759 -717 -331 0
717 -759 -331 0
695 -933 -333 0
933 -695 -333 0
924 -884 -335 0
884 -924 -335 0
893 -940 -337 0
940 -893 -337 0
721 -802 -339 0
802 -721 -339 0
792 -954 -341 0
954 -792 -341 0
961 -924 -343 0
924 -961 -343 0
949 -959 -345 0
959 -949 -345 0
891 -752 -347 0
752 -891 -347 0
869 -943 -349 0
943 -869 -349 0
833 -788 -351 0
788 -833 -351 0
823 -854 -353 0
854 -823 -353 0
916 -727 -355 0
727 -916 -355 0
908 -917 -357 0
917 -908 -357 0
723 -727 -359 0
727 -723 -359 0
907 -781 -361 0
781 -907 -361 0
722 -737 -363 0
737 -722 -363 0
761 -907 -365 0
907 -761 -365 0
824 -755 -367 0
755 -824 -367 0
899 -808 -369 0
808 -899 -369 0
932 -862 -371 0
862 -932 -371 0
836 -843 -373 0
843 -836 -373 0
738 -918 -375 0
918 -738 -375 0
845 -841 -377 0
841 -845 -377 0
731 -799 -379 0
799 -731 -379 0
731 -859 -381 0
859 -731 -381 0
732 -791 -383 0
791 -732 -383 0
792 -876 -385 0
876 -792 -385 0
813 -925 -387 0
925 -813 -387 0
914 -766 -389 0
766 -914 -389 0
827 -940 -391 0
940 -827 -391 0
754 -919 -393 0
919 -754 -393 0
698 -775 -395 0
775 -698 -395 0
958 -948 -397 0
948 -958 -397 0
807 -703 -399 0
703 -807 -399 0
855 -717 -401 0
717 -855 -401 0
810 -737 -403 0
737 -810 -403 0
746 -786 -405 0
786 -746 -405 0
700 -792 -407 0
792 -700 -407 0
738 -860 -409 0
860 -738 -409 0
715 -912 -411 0
912 -715 -411 0
774 -950 -413 0
950 -774 -413 0
769 -714 -415 0
714 -769 -415 0
961 -902 -417 0
902 -961 -417 0
754 -959 -419 0
959 -754 -419 0
745 -767 -421 0
767 -745 -421 0
966 -742 -423 0
742 -966 -423 0
773 -785 -425 0
785 -773 -425 0
897 -863 -427 0
863 -897 -427 0
706 -757 -429 0
757 -706 -429 0
938 -867 -431 0
867 -938 -431 0
899 -808 -433 0
808 -899 -433 0
900 -861 -435 0
861 -900 -435 0
902 -745 -437 0
745 -902 -437 0
723 -727 -439 0
727 -723 -439 0
701 -804 -441 0
804 -701 -441 0
819 -824 -443 0
824 -819 -443 0
720 -702 -445 0
702 -720 -445 0
943 -925 -447 0
925 -943 -447 0
833 -788 -449 0
788 -833 -449 0
780 -874 -451 0
874 -780 -451 0
772 -891 -453 0
891 -772 -453 0
865 -922 -455 0
922 -865 -455 0
721 -732 -457 0
732 -721 -457 0
948 -800 -459 0
800 -948 -459 0
911 -748 -461 0
748 -911 -461 0
803 -789 -463 0
789 -803 -463 0
721 -908 -465 0
908 -721 -465 0
939 -824 -467 0
824 -939 -467 0
923 -964 -469 0
964 -923 -469 0
947 -863 -471 0
863 -947 -471 0
957 -775 -473 0
775 -957 -473 0
937 -783 -475 0
783 -937 -475 0
904 -860 -477 0
860 -904 -477 0
815 -947 -479 0
947 -815 -479 0
929 -777 -481 0
777 -929 -481 0
922 -704 -483 0
704 -922 -483 0
764 -805 -485 0
805 -764 -485 0
746 -958 -487 0
958 -746 -487 0
750 -875 -489 0
875 -750 -489 0
872 -766 -491 0
766 -872 -491 0
828 -806 -493 0
806 -828 -493 0
891 -752 -495 0
752 -891 -495 0
798 -721 -497 0
721 -798 -497 0
715 -936 -499 0
936 -715 -499 0
732 -791 -501 0
791 -732 -501 0
777 -963 -503 0
963 -777 -503 0
938 -909 -505 0
909 -938 -505 0
946 -797 -507 0
797 -946 -507 0
807 -733 -509 0
733 -807 -509 0
773 -931 -511 0
931 -773 -511 0
713 -874 -513 0
874 -713 -513 0
894 -795 -515 0
795 -894 -515 0
772 -695 -517 0
695 -772 -517 0
706 -910 -519 0
910 -706 -519 0
711 -959 -521 0
959 -711 -521 0
779 -950 -523 0
950 -779 -523 0
890 -849 -525 0
849 -890 -525 0
816 -784 -527 0
784 -816 -527 0
831 -858 -529 0
858 -831 -529 0
783 -858 -531 0
858 -783 -531 0
916 -833 -533 0
833 -916 -533 0
811 -943 -535 0
943 -811 -535 0
724 -877 -537 0
877 -724 -537 0
881 -710 -539 0
710 -881 -539 0
889 -930 -541 0
930 -889 -541 0
915 -765 -543 0
765 -915 -543 0
945 -809 -545 0
809 -945 -545 0
836 -759 -547 0
759 -836 -547 0
751 -832 -549 0
832 -751 -549 0
780 -875 -551 0
875 -780 -551 0
879 -783 -553 0
783 -879 -553 0
821 -797 -555 0
797 -821 -555 0
744 -898 -557 0
898 -744 -557 0
934 -897 -559 0
897 -934 -559 0
695 -707 -561 0
707 -695 -561 0
870 -880 -563 0
880 -870 -563 0
920 -925 -565 0
925 -920 -565 0
822 -810 -567 0
810 -822 -567 0
855 -764 -569 0
764 -855 -569 0
857 -842 -571 0
842 -857 -571 0
923 -854 -573 0
854 -923 -573 0
871 -941 -575 0
941 -871 -575 0
833 -788 -577 0
788 -833 -577 0
864 -748 -579 0
748 -864 -579 0
696 -786 -581 0
786 -696 -581 0
931 -888 -583 0
888 -931 -583 0
905 -751 -585 0
751 -905 -585 0
852 -873 -587 0
873 -852 -587 0
771 -817 -589 0
817 -771 -589 0
813 -941 -591 0
941 -813 -591 0
836 -956 -593 0
956 -836 -593 0
764 -844 -595 0
844 -764 -595 0
712 -898 -597 0
898 -712 -597 0
905 -899 -599 0
899 -905 -599 0
815 -796 -601 0
796 -815 -601 0
793 -854 -603 0
854 -793 -603 0
747 -887 -605 0
887 -747 -605 0
901 -840 -607 0
840 -901 -607 0
912 -930 -609 0
930 -912 -609 0
915 -790 -611 0
790 -915 -611 0
725 -813 -613 0
813 -725 -613 0
798 -870 -615 0
870 -798 -615 0
769 -770 -617 0
770 -769 -617 0
856 -882 -619 0
882 -856 -619 0
894 -702 -621 0
702 -894 -621 0
951 -817 -623 0
817 -951 -623 0
762 -790 -625 0
790 -762 -625 0
768 -716 -627 0
716 -768 -627 0
805 -896 -629 0
896 -805 -629 0
812 -704 -631 0
704 -812 -631 0
850 -960 -633 0
960 -850 -633 0
738 -888 -635 0
888 -738 -635 0
718 -848 -637 0
848 -718 -637 0
759 -697 -639 0
697 -759 -639 0
873 -960 -641 0
960 -873 -641 0
794 -962 -643 0
962 -794 -643 0
955 -762 -645 0
762 -955 -645 0
779 -892 -647 0
892 -779 -647 0
911 -857 -649 0
857 -911 -649 0
822 -928 -651 0
928 -822 -651 0
932 -852 -653 0
852 -932 -653 0
794 -758 -655 0
758 -794 -655 0
921 -928 -657 0
928 -921 -657 0
885 -722 -659 0
722 -885 -659 0
762 -965 -661 0
965 -762 -661 0
827 -797 -663 0
797 -827 -663 0
760 -779 -665 0
779 -760 -665 0
827 -864 -667 0
864 -827 -667 0
807 -733 -669 0
733 -807 -669 0
952 -725 -671 0
725 -952 -671 0
966 -908 -673 0
908 -966 -673 0
733 -844 -675 0
844 -733 -675 0
732 -880 -677 0
880 -732 -677 0
729 -737 -679 0
737 -729 -679 0
935 -741 -681 0
741 -935 -681 0
855 -697 -683 0
697 -855 -683 0
767 -911 -685 0
911 -767 -685 0
927 -728 -687 0
728 -927 -687 0
743 -699 -689 0
699 -743 -689 0
826 -720 -691 0
720 -826 -691 0
756 -866 -693 0
866 -756 -693 0

